547999
56,17,44,79,27,58,28,101,104,4,14,23,40,31,82,13,30,95,70,2,19,105,16,52,62,100,55,75,63,48,22,45,61,47,78,60,53,21,106,92,59,66,65,85,37,36,71,41,11,33,39,15,76,8,89,87,57,43,50,72,99,74,94,24,86,25,90,29,67,46,64,6,77,81,98,7,96,26,20,3,38,49,103,83,93,34,68,91,35,1,102,42,80,69,73,51,88,32,84,18,54,5,12,10,9,97